/*********************************************
 * OPL 22.1.1.0 Data
 * Author: gatsby
 * Creation Date: May 12, 2023 at 5:04:26 PM
 *********************************************/
Tons = [423, 434, 580, 873, 1297, 1735, 2211, 1667, 1335, 850, 594, 423];
 